NAME: tsp5_16
COMMENT: 5-tsp problem (Padberg/Rinaldi)
TYPE: TSP
DIMENSION: 5
EDGE_WEIGHT_TYPE : EUC_2D
NODE_COORD_SECTION
1.00 11.45 5.41
2.00 21.45 18.57
3.00 11.89 39.05
4.00 11.55 14.84
5.00 17.40 7.43
